r103             
1292.68 13            
96874 354 354 |0 60 45 83 5 99 6      
96874 354 354 |0 71 65 78 34 35 81 77 28  
96874 354 354 |0 2 22 75 56 4 25 54    
96874 354 354 |0 7 19 11 8 46 47 48 82 18 89  
96874 354 354 |0 94 96 95 97 87 13     
96874 354 354 |0 27 69 30 9 66 20 51 1    
96874 354 354 |0 42 43 15 57 41 74 72 73 21 58   
96874 354 354 |0 40 53 12 68 80        
96874 354 354 |0 50 33 76 79 10 31      
96874 354 354 |0 36 64 49 63 90 32 70   
96874 354 354 |0 92 98 14 44 38 86 16 61 85 91 100 37 
96874 354 354 |0 26 39 23 67 55 24 29 3    
96874 354 354 |0 52 62 88 84 17 93 59     
              
 
 
 
 
 
 


 
 
 
 
 
 
 
 
 


 
 
 
 
 
 
 
 
 
 
 
 


 
 
 
 
 
 
 
 


 
 
 
 
 
 
 
 
 
 


 
 
 
 
 
 
 
 
 
 
 
 


 
 
 
 
 
 
 


 
 
 
 
 
 
 
 


 
 
 
 
 
 
 
 
 


 
 
 
 
 
 
 
 
 
 
 
 
 
 


 
 
 
 
 
 
 
 
 
 


 
 
 
 
 
 
 
 
 
